p cnf 41 91                                                                   
e 1 2 3 4 5 6 7 8 9 10  0
a 11  0
e 12 13 15 14 27 16 28 29 17 30 31 18 32 33 19 34 35 20 36 37 21 38 39 22 40 41 23 24 25 26  0
26  0
-12 -1 -2  0
12 1  0
12 2  0
-13 1 2  0
13 -1  0
13 -2  0
15 -12 -13  0
-15 12  0
-15 13  0
-14 -15 -3  0
14 15  0
14 3  0
-27 15 3  0
27 -15  0
27 -3  0
16 -14 -27  0
-16 14  0
-16 27  0
-28 -16 -4  0
28 16  0
28 4  0
-29 16 4  0
29 -16  0
29 -4  0
17 -28 -29  0
-17 28  0
-17 29  0
-30 -17 -5  0
30 17  0
30 5  0
-31 17 5  0
31 -17  0
31 -5  0
18 -30 -31  0
-18 30  0
-18 31  0
-32 -18 -6  0
32 18  0
32 6  0
-33 18 6  0
33 -18  0
33 -6  0
19 -32 -33  0
-19 32  0
-19 33  0
-34 -19 -7  0
34 19  0
34 7  0
-35 19 7  0
35 -19  0
35 -7  0
20 -34 -35  0
-20 34  0
-20 35  0
-36 -20 -8  0
36 20  0
36 8  0
-37 20 8  0
37 -20  0
37 -8  0
21 -36 -37  0
-21 36  0
-21 37  0
-38 -21 -9  0
38 21  0
38 9  0
-39 21 9  0
39 -21  0
39 -9  0
22 -38 -39  0
-22 38  0
-22 39  0
-40 -22 -10  0
40 22  0
40 10  0
-41 22 10  0
41 -22  0
41 -10  0
23 -40 -41  0
-23 40  0
-23 41  0
-24 11 23  0
24 -11  0
24 -23  0
-25 -11 -23  0
25 11  0
25 23  0
26 -24 -25  0
-26 24  0
-26 25  0
